networks/zoo_116_3306/zoo_116_3306.txt
OKAY
Number of groups: 62
Flow 53: {1 33 0} {33 54 1} {54 112 2} 
Flow 99: {2 5 0} {5 11 1} {11 43 2} {43 101 3} 
Flow 108: {5 53 0} {53 35 1} {35 38 2} {38 52 3} {52 110 4} 
Flow 143: {32 30 0} {30 88 1} 
Flow 158: {3 33 0} {33 15 1} {15 47 2} {47 45 3} {45 103 4} 
Flow 179: {22 23 0} {23 9 1} {9 67 2} 
Flow 219: {4 35 0} {35 49 1} {49 107 2} 
Flow 295: {6 53 0} {53 11 1} {11 69 2} 
Flow 301: {53 15 0} {15 32 1} {32 17 2} {17 75 3} 
Flow 399: {7 43 0} {43 11 1} {11 44 2} {44 58 3} {58 116 4} 
Flow 404: {8 5 0} {5 63 1} 
Flow 477: {9 23 0} {23 22 1} {22 80 2} 
Flow 563: {10 56 0} {56 35 1} {35 16 2} {16 51 3} {51 109 4} 
Flow 646: {12 11 0} {11 22 1} {22 20 2} {20 78 3} 
Flow 683: {11 53 0} {53 57 1} {57 115 2} 
Flow 725: {13 21 0} {21 22 1} {22 11 2} {11 42 3} {42 100 4} 
Flow 753: {28 15 0} {15 44 1} {44 11 2} {11 12 3} {12 70 4} 
Flow 778: {14 28 0} {28 57 1} {57 38 2} {38 96 3} 
Flow 833: {33 35 0} {35 36 1} 
Flow 839: {15 53 0} {53 42 1} 
Flow 947: {17 32 0} {32 18 1} {18 54 2} {54 36 3} {36 94 4} 
Flow 999: {18 32 0} {32 31 1} {31 89 2} 
Flow 1115: {44 15 0} {15 33 1} {33 91 2} 
Flow 1122: {20 22 0} {22 19 1} {19 47 2} {47 40 3} {40 98 4} 
Flow 1332: {24 22 0} {22 21 1} {21 79 2} 
Flow 1386: {25 35 0} {35 54 1} 
Flow 1401: {16 34 0} {34 92 1} 
Flow 1450: {26 35 0} {35 25 1} {25 83 2} 
Flow 1488: {27 53 0} {53 6 1} {6 64 2} 
Flow 1610: {29 28 0} {28 14 1} {14 72 2} 
Flow 1632: {57 37 0} {37 95 1} 
Flow 1707: {30 32 0} {32 15 1} {15 55 2} {55 113 3} 
Flow 1726: {31 32 0} {32 33 1} {33 16 2} {16 74 3} 
Flow 1915: {34 16 0} {16 35 1} {35 93 2} 
Flow 1996: {36 35 0} {35 33 1} {33 1 2} {1 59 3} 
Flow 2013: {36 54 2} {54 18 3} {18 76 4} 
Flow 2137: {38 57 0} {57 28 1} {28 86 2} 
Flow 2193: {19 53 0} {53 27 1} {27 85 2} 
Flow 2206: {39 19 0} {19 41 1} {41 99 2} 
Flow 2238: {40 47 0} {47 15 1} {15 73 2} 
Flow 2293: {21 13 0} {13 71 1} 
Flow 2304: {41 19 0} {19 22 1} {22 24 2} {24 82 3} 
Flow 2344: {42 53 0} {53 7 1} {7 65 2} 
Flow 2345: {42 11 0} {11 5 1} {5 8 2} {8 66 3} 
Flow 2446: {43 7 0} {7 53 1} {53 111 2} 
Flow 2527: {45 47 0} {47 19 1} {19 77 2} 
Flow 2531: {23 81 0} 
Flow 2553: {47 46 0} {46 104 1} 
Flow 2612: {46 47 0} {47 48 1} {48 106 2} 
Flow 2726: {48 47 0} {47 105 1} 
Flow 2791: {49 35 0} {35 56 1} {56 114 2} 
Flow 2825: {50 33 0} {33 32 1} {32 90 2} 
Flow 2900: {51 16 0} {16 33 1} {33 50 2} {50 108 3} 
Flow 2933: {52 38 0} {38 35 1} {35 26 2} {26 84 3} 
Flow 3024: {54 33 0} {33 3 1} {3 61 2} 
Flow 3060: {35 53 0} {53 19 1} {19 39 2} {39 97 3} 
Flow 3077: {54 35 0} {35 37 1} {37 57 2} 
Flow 3107: {55 15 0} {15 28 1} {28 29 2} {29 87 3} 
Flow 3194: {57 53 0} {53 5 1} {5 2 2} {2 60 3} 
Flow 3196: {37 35 0} {35 4 1} {4 62 2} 
Flow 3202: {56 10 0} {10 68 1} 
Flow 3293: {58 44 0} {44 102 1} 
Time taken running everything: 0 seconds
