networks/zoo_116_3306/zoo_116_3306.sol
<?xml version = "1.0" encoding="UTF-8" standalone="yes"?>
<CPLEXSolution version="1.2">
 <header
   problemName="networks/zoo_116_3306/zoo_116_3306.lp"
   solutionName="incumbent"
   solutionIndex="-1"
   objectiveValue="62"
   solutionTypeValue="3"
   solutionTypeString="primal"
   solutionStatusValue="101"
   solutionStatusString="integer optimal solution"
   solutionMethodString="mip"
   primalFeasible="1"
   dualFeasible="1"
   MIPNodes="7042"
   MIPIterations="405169"
   writeLevel="3"/>
 <quality
   epInt="1.0000000000000001e-05"
   epRHS="9.9999999999999995e-07"
   maxIntInfeas="0"
   maxPrimalInfeas="8.8817841970012523e-16"
   maxX="4"
   maxSlack="10"/>
 <variables>
  <variable name="Y(53,54)" index="6085" value="1"/>
  <variable name="Y(99,43)" index="11410" value="1"/>
  <variable name="Y(108,52)" index="12463" value="1"/>
  <variable name="Y(143,30)" index="16501" value="1"/>
  <variable name="Y(158,45)" index="18256" value="1"/>
  <variable name="Y(179,9)" index="20656" value="1"/>
  <variable name="Y(219,49)" index="25336" value="1"/>
  <variable name="Y(295,11)" index="34114" value="1"/>
  <variable name="Y(301,17)" index="34816" value="1"/>
  <variable name="Y(399,58)" index="46225" value="1"/>
  <variable name="Y(404,5)" index="46752" value="1"/>
  <variable name="Y(477,22)" index="55237" value="1"/>
  <variable name="Y(563,51)" index="65242" value="1"/>
  <variable name="Y(646,20)" index="74839" value="1"/>
  <variable name="Y(683,57)" index="79168" value="1"/>
  <variable name="Y(725,42)" index="84025" value="1"/>
  <variable name="Y(753,12)" index="87243" value="1"/>
  <variable name="Y(778,38)" index="90169" value="1"/>
  <variable name="Y(833,35)" index="96546" value="1"/>
  <variable name="Y(839,53)" index="97260" value="1"/>
  <variable name="Y(947,36)" index="109771" value="1"/>
  <variable name="Y(999,31)" index="115798" value="1"/>
  <variable name="Y(1115,33)" index="129256" value="1"/>
  <variable name="Y(1122,40)" index="130075" value="1"/>
  <variable name="Y(1332,21)" index="154416" value="1"/>
  <variable name="Y(1386,35)" index="160694" value="1"/>
  <variable name="Y(1401,34)" index="162433" value="1"/>
  <variable name="Y(1450,25)" index="168108" value="1"/>
  <variable name="Y(1488,6)" index="172497" value="1"/>
  <variable name="Y(1610,14)" index="186657" value="1"/>
  <variable name="Y(1632,37)" index="189232" value="1"/>
  <variable name="Y(1707,55)" index="197950" value="1"/>
  <variable name="Y(1726,16)" index="200115" value="1"/>
  <variable name="Y(1915,35)" index="222058" value="1"/>
  <variable name="Y(1996,1)" index="231420" value="1"/>
  <variable name="Y(2013,18)" index="233409" value="1"/>
  <variable name="Y(2137,28)" index="247803" value="1"/>
  <variable name="Y(2193,27)" index="254298" value="1"/>
  <variable name="Y(2206,41)" index="255820" value="1"/>
  <variable name="Y(2238,15)" index="259506" value="1"/>
  <variable name="Y(2293,13)" index="265884" value="1"/>
  <variable name="Y(2304,24)" index="267171" value="1"/>
  <variable name="Y(2344,7)" index="271794" value="1"/>
  <variable name="Y(2345,8)" index="271911" value="1"/>
  <variable name="Y(2446,53)" index="283672" value="1"/>
  <variable name="Y(2527,19)" index="293034" value="1"/>
  <variable name="Y(2531,23)" index="293502" value="1"/>
  <variable name="Y(2553,46)" index="296077" value="1"/>
  <variable name="Y(2612,48)" index="302923" value="1"/>
  <variable name="Y(2726,47)" index="316146" value="1"/>
  <variable name="Y(2791,56)" index="323695" value="1"/>
  <variable name="Y(2825,32)" index="327615" value="1"/>
  <variable name="Y(2900,50)" index="336333" value="1"/>
  <variable name="Y(2933,26)" index="340137" value="1"/>
  <variable name="Y(3024,3)" index="350670" value="1"/>
  <variable name="Y(3060,39)" index="354882" value="1"/>
  <variable name="Y(3077,37)" index="356852" value="1"/>
  <variable name="Y(3107,29)" index="360324" value="1"/>
  <variable name="Y(3194,2)" index="370389" value="1"/>
  <variable name="Y(3196,4)" index="370623" value="1"/>
  <variable name="Y(3202,10)" index="371325" value="1"/>
  <variable name="Y(3293,44)" index="381915" value="1"/>
  <variable name="X(1,33,53)" index="383548" value="1"/>
  <variable name="X(1,59,1996)" index="388797" value="1"/>
  <variable name="X(2,5,99)" index="390206" value="1"/>
  <variable name="X(2,60,3194)" index="396607" value="1"/>
  <variable name="X(3,33,158)" index="396877" value="1"/>
  <variable name="X(3,61,3024)" index="403049" value="1"/>
  <variable name="X(4,35,219)" index="403550" value="1"/>
  <variable name="X(4,62,3196)" index="409833" value="1"/>
  <variable name="X(5,2,3194)" index="413137" value="1"/>
  <variable name="X(5,8,2345)" index="415594" value="1"/>
  <variable name="X(5,11,99)" index="416654" value="1"/>
  <variable name="X(5,53,108)" index="419969" value="1"/>
  <variable name="X(5,63,404)" index="423571" value="1"/>
  <variable name="X(6,53,295)" index="426768" value="1"/>
  <variable name="X(6,64,1488)" index="431267" value="1"/>
  <variable name="X(7,43,399)" index="433484" value="1"/>
  <variable name="X(7,53,2446)" index="438837" value="1"/>
  <variable name="X(7,65,2344)" index="442041" value="1"/>
  <variable name="X(8,5,404)" index="443407" value="1"/>
  <variable name="X(8,66,2345)" index="448654" value="1"/>
  <variable name="X(9,23,477)" index="450092" value="1"/>
  <variable name="X(9,67,179)" index="453100" value="1"/>
  <variable name="X(10,56,563)" index="456790" value="1"/>
  <variable name="X(10,68,3202)" index="462735" value="1"/>
  <variable name="X(11,5,2345)" index="465184" value="1"/>
  <variable name="X(11,12,753)" index="466898" value="1"/>
  <variable name="X(11,22,646)" index="470097" value="1"/>
  <variable name="X(11,42,725)" index="473482" value="1"/>
  <variable name="X(11,43,99)" index="476162" value="1"/>
  <variable name="X(11,44,399)" index="479768" value="1"/>
  <variable name="X(11,53,683)" index="483358" value="1"/>
  <variable name="X(11,69,295)" index="486276" value="1"/>
  <variable name="X(12,11,646)" index="489933" value="1"/>
  <variable name="X(12,70,753)" index="493346" value="1"/>
  <variable name="X(13,21,725)" index="496624" value="1"/>
  <variable name="X(13,71,2293)" index="501498" value="1"/>
  <variable name="X(14,28,778)" index="503289" value="1"/>
  <variable name="X(14,72,1610)" index="507427" value="1"/>
  <variable name="X(15,28,3107)" index="512230" value="1"/>
  <variable name="X(15,32,301)" index="512730" value="1"/>
  <variable name="X(15,33,1115)" index="516850" value="1"/>
  <variable name="X(15,44,753)" index="519794" value="1"/>
  <variable name="X(15,47,158)" index="522505" value="1"/>
  <variable name="X(15,53,839)" index="526492" value="1"/>
  <variable name="X(15,55,1707)" index="530666" value="1"/>
  <variable name="X(15,73,2238)" index="534503" value="1"/>
  <variable name="X(16,33,2900)" index="538471" value="1"/>
  <variable name="X(16,34,1401)" index="540278" value="1"/>
  <variable name="X(16,35,1915)" index="544098" value="1"/>
  <variable name="X(16,51,563)" index="546052" value="1"/>
  <variable name="X(16,74,1726)" index="550521" value="1"/>
  <variable name="X(17,32,947)" index="553048" value="1"/>
  <variable name="X(17,75,301)" index="555708" value="1"/>
  <variable name="X(18,32,999)" index="559712" value="1"/>
  <variable name="X(18,54,947)" index="562966" value="1"/>
  <variable name="X(18,76,2013)" index="567338" value="1"/>
  <variable name="X(19,22,2304)" index="570935" value="1"/>
  <variable name="X(19,39,3060)" index="574997" value="1"/>
  <variable name="X(19,41,2206)" index="577449" value="1"/>
  <variable name="X(19,47,1122)" index="579671" value="1"/>
  <variable name="X(19,53,2193)" index="584048" value="1"/>
  <variable name="X(19,77,2527)" index="587688" value="1"/>
  <variable name="X(20,22,1122)" index="589589" value="1"/>
  <variable name="X(20,78,646)" index="592419" value="1"/>
  <variable name="X(21,13,2293)" index="597372" value="1"/>
  <variable name="X(21,22,725)" index="599110" value="1"/>
  <variable name="X(21,79,1332)" index="603023" value="1"/>
  <variable name="X(22,11,725)" index="605722" value="1"/>
  <variable name="X(22,19,1122)" index="609425" value="1"/>
  <variable name="X(22,20,646)" index="612255" value="1"/>
  <variable name="X(22,21,1332)" index="616247" value="1"/>
  <variable name="X(22,23,179)" index="618400" value="1"/>
  <variable name="X(22,24,2304)" index="623831" value="1"/>
  <variable name="X(22,80,477)" index="625310" value="1"/>
  <variable name="X(23,9,179)" index="628318" value="1"/>
  <variable name="X(23,22,477)" index="631922" value="1"/>
  <variable name="X(23,81,2531)" index="637282" value="1"/>
  <variable name="X(24,22,1332)" index="639389" value="1"/>
  <variable name="X(24,82,2304)" index="643667" value="1"/>
  <variable name="X(25,35,1386)" index="646055" value="1"/>
  <variable name="X(25,83,1450)" index="649425" value="1"/>
  <variable name="X(26,35,1450)" index="652731" value="1"/>
  <variable name="X(26,84,2933)" index="657520" value="1"/>
  <variable name="X(27,53,1488)" index="659381" value="1"/>
  <variable name="X(27,85,2193)" index="663392" value="1"/>
  <variable name="X(28,14,1610)" index="666115" value="1"/>
  <variable name="X(28,15,753)" index="668564" value="1"/>
  <variable name="X(28,29,3107)" index="674224" value="1"/>
  <variable name="X(28,57,778)" index="675201" value="1"/>
  <variable name="X(28,86,2137)" index="679866" value="1"/>
  <variable name="X(29,28,1610)" index="682645" value="1"/>
  <variable name="X(29,87,3107)" index="687448" value="1"/>
  <variable name="X(30,32,1707)" index="689354" value="1"/>
  <variable name="X(30,88,143)" index="691096" value="1"/>
  <variable name="X(31,32,1726)" index="695985" value="1"/>
  <variable name="X(31,89,999)" index="698564" value="1"/>
  <variable name="X(32,15,1707)" index="702578" value="1"/>
  <variable name="X(32,17,301)" index="704478" value="1"/>
  <variable name="X(32,18,947)" index="708430" value="1"/>
  <variable name="X(32,30,143)" index="710932" value="1"/>
  <variable name="X(32,31,999)" index="715094" value="1"/>
  <variable name="X(32,33,1726)" index="719127" value="1"/>
  <variable name="X(32,90,2825)" index="723532" value="1"/>
  <variable name="X(33,1,1996)" index="726009" value="1"/>
  <variable name="X(33,3,3024)" index="730343" value="1"/>
  <variable name="X(33,15,158)" index="730783" value="1"/>
  <variable name="X(33,16,1726)" index="735657" value="1"/>
  <variable name="X(33,32,2825)" index="740062" value="1"/>
  <variable name="X(33,35,833)" index="741376" value="1"/>
  <variable name="X(33,50,2900)" index="746749" value="1"/>
  <variable name="X(33,54,53)" index="747208" value="1"/>
  <variable name="X(33,91,1115)" index="751576" value="1"/>
  <variable name="X(34,16,1915)" index="755682" value="1"/>
  <variable name="X(34,92,1401)" index="758474" value="1"/>
  <variable name="X(35,4,3196)" index="763575" value="1"/>
  <variable name="X(35,16,563)" index="764248" value="1"/>
  <variable name="X(35,25,1450)" index="768441" value="1"/>
  <variable name="X(35,26,2933)" index="773230" value="1"/>
  <variable name="X(35,33,1996)" index="775599" value="1"/>
  <variable name="X(35,36,833)" index="777742" value="1"/>
  <variable name="X(35,37,3077)" index="783292" value="1"/>
  <variable name="X(35,38,108)" index="783629" value="1"/>
  <variable name="X(35,49,219)" index="787046" value="1"/>
  <variable name="X(35,53,3060)" index="793193" value="1"/>
  <variable name="X(35,54,1386)" index="794825" value="1"/>
  <variable name="X(35,56,2791)" index="799536" value="1"/>
  <variable name="X(35,93,1915)" index="801966" value="1"/>
  <variable name="X(36,35,1996)" index="805353" value="1"/>
  <variable name="X(36,54,2013)" index="808676" value="1"/>
  <variable name="X(36,94,947)" index="810916" value="1"/>
  <variable name="X(37,35,3196)" index="816471" value="1"/>
  <variable name="X(37,57,3077)" index="819658" value="1"/>
  <variable name="X(37,95,1632)" index="821519" value="1"/>
  <variable name="X(38,35,2933)" index="826126" value="1"/>
  <variable name="X(38,52,108)" index="826607" value="1"/>
  <variable name="X(38,57,2137)" index="831942" value="1"/>
  <variable name="X(38,96,778)" index="833889" value="1"/>
  <variable name="X(39,19,2206)" index="838623" value="1"/>
  <variable name="X(39,97,3060)" index="842783" value="1"/>
  <variable name="X(40,47,2238)" index="845267" value="1"/>
  <variable name="X(40,98,1122)" index="847457" value="1"/>
  <variable name="X(41,19,2304)" index="851945" value="1"/>
  <variable name="X(41,99,2206)" index="855153" value="1"/>
  <variable name="X(42,11,2345)" index="858598" value="1"/>
  <variable name="X(42,53,2344)" index="861903" value="1"/>
  <variable name="X(42,100,725)" index="863590" value="1"/>
  <variable name="X(43,7,2446)" index="868617" value="1"/>
  <variable name="X(43,11,399)" index="869876" value="1"/>
  <variable name="X(43,101,99)" index="872882" value="1"/>
  <variable name="X(44,11,753)" index="876842" value="1"/>
  <variable name="X(44,15,1115)" index="880510" value="1"/>
  <variable name="X(44,58,399)" index="883100" value="1"/>
  <variable name="X(44,102,3293)" index="889300" value="1"/>
  <variable name="X(45,47,2527)" index="891840" value="1"/>
  <variable name="X(45,103,158)" index="892777" value="1"/>
  <variable name="X(46,47,2612)" index="898537" value="1"/>
  <variable name="X(46,104,2553)" index="901784" value="1"/>
  <variable name="X(47,15,2238)" index="904775" value="1"/>
  <variable name="X(47,19,2527)" index="908370" value="1"/>
  <variable name="X(47,40,1122)" index="910271" value="1"/>
  <variable name="X(47,45,158)" index="912613" value="1"/>
  <variable name="X(47,46,2553)" index="918314" value="1"/>
  <variable name="X(47,48,2612)" index="921679" value="1"/>
  <variable name="X(47,105,2726)" index="925099" value="1"/>
  <variable name="X(48,47,2726)" index="928405" value="1"/>
  <variable name="X(48,106,2612)" index="931597" value="1"/>
  <variable name="X(49,35,2791)" index="935082" value="1"/>
  <variable name="X(49,107,219)" index="935816" value="1"/>
  <variable name="X(50,33,2825)" index="941728" value="1"/>
  <variable name="X(50,108,2900)" index="945109" value="1"/>
  <variable name="X(51,16,2900)" index="948415" value="1"/>
  <variable name="X(51,109,563)" index="949384" value="1"/>
  <variable name="X(52,38,2933)" index="955060" value="1"/>
  <variable name="X(52,110,108)" index="955541" value="1"/>
  <variable name="X(53,5,3194)" index="961933" value="1"/>
  <variable name="X(53,6,1488)" index="963533" value="1"/>
  <variable name="X(53,7,2344)" index="967695" value="1"/>
  <variable name="X(53,11,295)" index="968952" value="1"/>
  <variable name="X(53,15,301)" index="972264" value="1"/>
  <variable name="X(53,19,3060)" index="978329" value="1"/>
  <variable name="X(53,27,2193)" index="980768" value="1"/>
  <variable name="X(53,35,108)" index="981989" value="1"/>
  <variable name="X(53,42,839)" index="986026" value="1"/>
  <variable name="X(53,57,683)" index="989176" value="1"/>
  <variable name="X(53,111,2446)" index="994245" value="1"/>
  <variable name="X(54,18,2013)" index="997118" value="1"/>
  <variable name="X(54,33,3024)" index="1001435" value="1"/>
  <variable name="X(54,35,3077)" index="1004794" value="1"/>
  <variable name="X(54,36,947)" index="1005970" value="1"/>
  <variable name="X(54,112,53)" index="1008382" value="1"/>
  <variable name="X(55,15,3107)" index="1014742" value="1"/>
  <variable name="X(55,113,1707)" index="1016648" value="1"/>
  <variable name="X(56,10,3202)" index="1021449" value="1"/>
  <variable name="X(56,35,563)" index="1022116" value="1"/>
  <variable name="X(56,114,2791)" index="1027650" value="1"/>
  <variable name="X(57,28,2137)" index="1030302" value="1"/>
  <variable name="X(57,37,1632)" index="1033103" value="1"/>
  <variable name="X(57,38,778)" index="1035555" value="1"/>
  <variable name="X(57,53,3194)" index="1041277" value="1"/>
  <variable name="X(57,115,683)" index="1042072" value="1"/>
  <variable name="X(58,44,3293)" index="1047988" value="1"/>
  <variable name="X(58,116,399)" index="1048400" value="1"/>
  <variable name="C(53,33)" index="1051558" value="1"/>
  <variable name="C(53,54)" index="1051559" value="2"/>
  <variable name="C(99,5)" index="1051781" value="1"/>
  <variable name="C(99,11)" index="1051782" value="2"/>
  <variable name="C(99,43)" index="1051783" value="3"/>
  <variable name="C(108,53)" index="1051830" value="1"/>
  <variable name="C(108,35)" index="1051831" value="2"/>
  <variable name="C(108,38)" index="1051832" value="3"/>
  <variable name="C(108,52)" index="1051833" value="4"/>
  <variable name="C(143,30)" index="1052010" value="1"/>
  <variable name="C(158,33)" index="1052072" value="1"/>
  <variable name="C(158,15)" index="1052073" value="2"/>
  <variable name="C(158,47)" index="1052074" value="3"/>
  <variable name="C(158,45)" index="1052075" value="4"/>
  <variable name="C(179,23)" index="1052166" value="1"/>
  <variable name="C(179,9)" index="1052167" value="2"/>
  <variable name="C(219,35)" index="1052350" value="1"/>
  <variable name="C(219,49)" index="1052351" value="2"/>
  <variable name="C(295,53)" index="1052655" value="1"/>
  <variable name="C(295,11)" index="1052656" value="2"/>
  <variable name="C(301,15)" index="1052681" value="1"/>
  <variable name="C(301,32)" index="1052682" value="2"/>
  <variable name="C(301,17)" index="1052683" value="3"/>
  <variable name="C(399,43)" index="1053095" value="1"/>
  <variable name="C(399,11)" index="1053096" value="2"/>
  <variable name="C(399,44)" index="1053097" value="3"/>
  <variable name="C(399,58)" index="1053098" value="4"/>
  <variable name="C(404,5)" index="1053120" value="1"/>
  <variable name="C(477,23)" index="1053506" value="1"/>
  <variable name="C(477,22)" index="1053507" value="2"/>
  <variable name="C(563,56)" index="1054011" value="1"/>
  <variable name="C(563,35)" index="1054012" value="2"/>
  <variable name="C(563,16)" index="1054013" value="3"/>
  <variable name="C(563,51)" index="1054014" value="4"/>
  <variable name="C(646,11)" index="1054351" value="1"/>
  <variable name="C(646,22)" index="1054352" value="2"/>
  <variable name="C(646,20)" index="1054353" value="3"/>
  <variable name="C(683,53)" index="1054532" value="1"/>
  <variable name="C(683,57)" index="1054533" value="2"/>
  <variable name="C(725,21)" index="1054787" value="1"/>
  <variable name="C(725,22)" index="1054788" value="2"/>
  <variable name="C(725,11)" index="1054789" value="3"/>
  <variable name="C(725,42)" index="1054790" value="4"/>
  <variable name="C(753,15)" index="1054958" value="1"/>
  <variable name="C(753,44)" index="1054959" value="2"/>
  <variable name="C(753,11)" index="1054960" value="3"/>
  <variable name="C(753,12)" index="1054961" value="4"/>
  <variable name="C(778,28)" index="1055089" value="1"/>
  <variable name="C(778,57)" index="1055090" value="2"/>
  <variable name="C(778,38)" index="1055091" value="3"/>
  <variable name="C(833,35)" index="1055317" value="1"/>
  <variable name="C(839,53)" index="1055339" value="1"/>
  <variable name="C(947,32)" index="1055796" value="1"/>
  <variable name="C(947,18)" index="1055797" value="2"/>
  <variable name="C(947,54)" index="1055798" value="3"/>
  <variable name="C(947,36)" index="1055799" value="3.9999999999999991"/>
  <variable name="C(999,32)" index="1056059" value="1"/>
  <variable name="C(999,31)" index="1056060" value="2"/>
  <variable name="C(1115,15)" index="1056559" value="1"/>
  <variable name="C(1115,33)" index="1056560" value="2"/>
  <variable name="C(1122,22)" index="1056596" value="1"/>
  <variable name="C(1122,19)" index="1056597" value="2"/>
  <variable name="C(1122,47)" index="1056598" value="3"/>
  <variable name="C(1122,40)" index="1056599" value="4"/>
  <variable name="C(1332,22)" index="1057642" value="1"/>
  <variable name="C(1332,21)" index="1057643" value="2"/>
  <variable name="C(1386,35)" index="1057917" value="1"/>
  <variable name="C(1401,34)" index="1057991" value="1"/>
  <variable name="C(1450,35)" index="1058211" value="1"/>
  <variable name="C(1450,25)" index="1058212" value="2"/>
  <variable name="C(1488,53)" index="1058374" value="1"/>
  <variable name="C(1488,6)" index="1058375" value="2"/>
  <variable name="C(1610,28)" index="1058916" value="1"/>
  <variable name="C(1610,14)" index="1058917" value="2"/>
  <variable name="C(1632,37)" index="1059032" value="1"/>
  <variable name="C(1707,32)" index="1059403" value="1"/>
  <variable name="C(1707,15)" index="1059404" value="2"/>
  <variable name="C(1707,55)" index="1059405" value="3"/>
  <variable name="C(1726,32)" index="1059503" value="1"/>
  <variable name="C(1726,33)" index="1059504" value="2"/>
  <variable name="C(1726,16)" index="1059505" value="3"/>
  <variable name="C(1915,16)" index="1060321" value="1"/>
  <variable name="C(1915,35)" index="1060322" value="1.9999999999999998"/>
  <variable name="C(1996,35)" index="1060638" value="1"/>
  <variable name="C(1996,33)" index="1060639" value="2"/>
  <variable name="C(1996,1)" index="1060640" value="3"/>
  <variable name="C(2013,36)" index="1060715" value="2"/>
  <variable name="C(2013,54)" index="1060716" value="3"/>
  <variable name="C(2013,18)" index="1060717" value="4"/>
  <variable name="C(2137,57)" index="1061265" value="1"/>
  <variable name="C(2137,28)" index="1061266" value="2"/>
  <variable name="C(2193,53)" index="1061512" value="1"/>
  <variable name="C(2193,27)" index="1061513" value="2"/>
  <variable name="C(2206,19)" index="1061577" value="1"/>
  <variable name="C(2206,41)" index="1061578" value="2"/>
  <variable name="C(2238,47)" index="1061738" value="1"/>
  <variable name="C(2238,15)" index="1061739" value="2"/>
  <variable name="C(2293,13)" index="1062005" value="1"/>
  <variable name="C(2304,19)" index="1062051" value="1"/>
  <variable name="C(2304,22)" index="1062052" value="2"/>
  <variable name="C(2304,24)" index="1062053" value="3"/>
  <variable name="C(2344,53)" index="1062238" value="1"/>
  <variable name="C(2344,7)" index="1062239" value="2"/>
  <variable name="C(2345,11)" index="1062241" value="1"/>
  <variable name="C(2345,5)" index="1062242" value="2"/>
  <variable name="C(2345,8)" index="1062243" value="3"/>
  <variable name="C(2446,7)" index="1062690" value="1"/>
  <variable name="C(2446,53)" index="1062691" value="2"/>
  <variable name="C(2527,47)" index="1063041" value="1"/>
  <variable name="C(2527,19)" index="1063042" value="2"/>
  <variable name="C(2553,46)" index="1063168" value="1"/>
  <variable name="C(2612,47)" index="1063455" value="1"/>
  <variable name="C(2612,48)" index="1063456" value="2"/>
  <variable name="C(2726,47)" index="1063966" value="1"/>
  <variable name="C(2791,35)" index="1064265" value="1"/>
  <variable name="C(2791,56)" index="1064266" value="2"/>
  <variable name="C(2825,33)" index="1064435" value="1"/>
  <variable name="C(2825,32)" index="1064436" value="2"/>
  <variable name="C(2900,16)" index="1064800" value="1"/>
  <variable name="C(2900,33)" index="1064801" value="2"/>
  <variable name="C(2900,50)" index="1064802" value="3"/>
  <variable name="C(2933,38)" index="1064978" value="1"/>
  <variable name="C(2933,35)" index="1064979" value="2"/>
  <variable name="C(2933,26)" index="1064980" value="3"/>
  <variable name="C(3024,33)" index="1065335" value="1"/>
  <variable name="C(3024,3)" index="1065336" value="2"/>
  <variable name="C(3060,53)" index="1065482" value="1"/>
  <variable name="C(3060,19)" index="1065483" value="2"/>
  <variable name="C(3060,39)" index="1065484" value="3"/>
  <variable name="C(3077,35)" index="1065552" value="1"/>
  <variable name="C(3077,37)" index="1065553" value="2"/>
  <variable name="C(3107,15)" index="1065693" value="1"/>
  <variable name="C(3107,28)" index="1065694" value="2"/>
  <variable name="C(3107,29)" index="1065695" value="3"/>
  <variable name="C(3194,53)" index="1066076" value="1"/>
  <variable name="C(3194,5)" index="1066077" value="2"/>
  <variable name="C(3194,2)" index="1066078" value="3"/>
  <variable name="C(3196,35)" index="1066086" value="1"/>
  <variable name="C(3196,4)" index="1066087" value="2"/>
  <variable name="C(3202,10)" index="1066111" value="1"/>
  <variable name="C(3293,44)" index="1066518" value="1"/>
 </variables>
</CPLEXSolution>
